NAME: ./prFile/tspFile/tsp_file80.tsp
COMMENT: TSP file generated by Python
TYPE: TSP
DIMENSION: 40
EDGE_WEIGHT_TYPE: EUC_2D
NODE_COORD_SECTION
1 54 24
2 80 81
3 8 31
4 53 32
5 25 94
6 69 59
7 12 72
8 93 59
9 27 26
10 6 34
11 17 47
12 78 23
13 23 88
14 52 80
15 9 31
16 52 59
17 21 61
18 95 19
19 37 71
20 7 72
21 58 97
22 28 27
23 46 22
24 72 87
25 59 95
26 66 88
27 19 59
28 98 31
29 19 78
30 21 39
31 25 91
32 78 23
33 81 29
34 86 98
35 32 29
36 77 9
37 68 32
38 93 91
39 88 81
40 39 11
EOF
